(declare-const X String)
; Porta\s+SSKC\s+\.cfgmPOPrtCUSTOMPalToolbarUser-Agent\x3A
(assert (not (str.in.re X (re.++ (str.to.re "Porta") (re.+ (re.union (str.to.re " ") (str.to.re "\x09") (str.to.re "\x0a") (str.to.re "\x0c") (str.to.re "\x0d"))) (str.to.re "SSKC") (re.+ (re.union (str.to.re " ") (str.to.re "\x09") (str.to.re "\x0a") (str.to.re "\x0c") (str.to.re "\x0d"))) (str.to.re ".cfgmPOPrtCUSTOMPalToolbarUser-Agent:\x0a")))))
(check-sat)
